words_hard_train/5370.qaiger
aag 44 12 0 1 32
2
4
8
12
14
20
26
30
38
40
50
62
88
6 3 5
10 6 9
16 12 14
18 11 16
22 19 20
24 13 15
28 24 27
32 28 31
34 32 10
36 23 35
42 38 40
44 39 41
46 43 45
48 47 20
52 50 5
54 2 8
56 55 50
58 57 4
60 53 59
64 60 62
66 49 64
68 37 66
70 25 20
72 2 4
74 73 17
76 7 8
78 74 77
80 70 79
82 26 30
84 80 82
86 85 46
88 68 87
i0 1 x1[2]
i1 2 y1[1]
i2 2 y1[2]
i3 1 x1[3]
i4 2 y1[3]
i5 2 y1[5]
i6 2 y1[4]
i7 2 y1[6]
i8 2 y1[7]
i9 1 x1[7]
i10 1 x1[1]
i11 2 y1[0]
o0 bool[0]
c
simplified
  ==
    and
      reverse
        -143
      1 x1
    subtract
      1
      2 y1
