words_hard_train/5370.qaiger.qdimacs
p cnf 44 97
a 1 20 6 25 0
e 2 3 4 5 7 8 9 10 11 12 13 14 15 16 17 18 19 21 22 23 24 26 27 28 29 30 31 32 33 34 35 36 37 38 39 40 41 42 43 44 0
1 2 3 0
-1 -3 0
-2 -3 0
-3 4 5 0
3 -5 0
-4 -5 0
-6 -7 8 0
6 -8 0
7 -8 0
5 -8 9 0
-5 -9 0
8 -9 0
9 -10 11 0
-9 -11 0
10 -11 0
6 7 12 0
-6 -12 0
-7 -12 0
-12 13 14 0
12 -14 0
-13 -14 0
-14 15 16 0
14 -16 0
-15 -16 0
-16 -5 17 0
16 -17 0
5 -17 0
11 17 18 0
-11 -18 0
-17 -18 0
-19 -20 21 0
19 -21 0
20 -21 0
19 20 22 0
-19 -22 0
-20 -22 0
21 22 23 0
-21 -23 0
-22 -23 0
23 -10 24 0
-23 -24 0
10 -24 0
-25 2 26 0
25 -26 0
-2 -26 0
-1 -4 27 0
1 -27 0
4 -27 0
27 -25 28 0
-27 -28 0
25 -28 0
28 -2 29 0
-28 -29 0
2 -29 0
26 29 30 0
-26 -30 0
-29 -30 0
-30 -31 32 0
30 -32 0
31 -32 0
24 -32 33 0
-24 -33 0
32 -33 0
18 -33 34 0
-18 -34 0
33 -34 0
12 -10 35 0
-12 -35 0
10 -35 0
-1 -2 36 0
1 -36 0
2 -36 0
36 8 37 0
-36 -37 0
-8 -37 0
3 -4 38 0
-3 -38 0
4 -38 0
-37 38 39 0
37 -39 0
-38 -39 0
-35 39 40 0
35 -40 0
-39 -40 0
-13 -15 41 0
13 -41 0
15 -41 0
-40 -41 42 0
40 -42 0
41 -42 0
42 -23 43 0
-42 -43 0
23 -43 0
-34 43 44 0
34 -44 0
-43 -44 0
44 0
